% demand
num_movements = 13;
loading_factor = [900, 1100, 1650, 1850, 1500, 900, 1150, 1100, 1950, 1550, 850, 2000, 900];
pickup_time = [0, 1, 1, 1, 1, 1, 5, 5, 7, 9, 9, 9, 10];
delivery_time = [1, 6, 5, 5, 5, 5, 6, 11, 8, 10, 10, 11, 11];

% transporter definition
total_capacity = 7000;
num_decks = 3;
capacity = [3000, 1000, 3000];

% ways out of decks
num_ways_out = 1;
paths_out = array3d(decks, ways_out, decks, [
% ways out of deck d1
2, 3, 0, 

% ways out of deck d2
3, 0, 0, 

% ways out of deck d3
0, 0, 0,	

]);

